90
2046
5
34
64
49
71
38
0 1
0 2
0 3
0 5
0 8
0 10
0 13
0 14
0 15
0 16
0 18
0 19
0 20
0 21
0 22
0 23
0 28
0 29
0 33
0 34
0 36
0 39
0 42
0 46
0 54
0 55
0 58
0 59
0 62
0 63
0 64
0 66
0 68
0 69
0 74
0 76
0 80
0 83
0 85
1 5
1 6
1 7
1 11
1 13
1 16
1 17
1 19
1 23
1 26
1 27
1 32
1 34
1 36
1 37
1 41
1 42
1 43
1 45
1 46
1 47
1 48
1 51
1 53
1 54
1 55
1 64
1 65
1 66
1 67
1 69
1 71
1 72
1 75
1 76
1 77
1 79
1 80
1 81
1 82
1 86
1 87
1 88
2 3
2 7
2 8
2 11
2 13
2 15
2 17
2 20
2 22
2 23
2 24
2 25
2 26
2 32
2 37
2 38
2 43
2 47
2 49
2 50
2 53
2 55
2 56
2 57
2 58
2 59
2 61
2 62
2 63
2 66
2 74
2 75
2 77
2 78
2 83
2 84
2 86
2 88
3 4
3 6
3 7
3 10
3 11
3 12
3 13
3 17
3 18
3 21
3 22
3 25
3 26
3 27
3 29
3 30
3 34
3 37
3 44
3 49
3 50
3 52
3 53
3 54
3 55
3 61
3 65
3 67
3 74
3 75
3 76
3 77
3 84
3 85
3 87
4 6
4 8
4 10
4 11
4 13
4 14
4 15
4 16
4 18
4 20
4 22
4 23
4 25
4 26
4 27
4 28
4 30
4 31
4 32
4 34
4 39
4 40
4 46
4 48
4 49
4 51
4 54
4 56
4 58
4 59
4 61
4 62
4 63
4 64
4 66
4 68
4 69
4 70
4 71
4 72
4 73
4 75
4 76
4 77
4 81
4 85
4 88
4 89
5 6
5 9
5 11
5 12
5 13
5 14
5 15
5 18
5 19
5 20
5 21
5 24
5 25
5 26
5 28
5 29
5 30
5 36
5 37
5 40
5 41
5 42
5 44
5 45
5 47
5 48
5 49
5 50
5 52
5 53
5 54
5 56
5 58
5 60
5 62
5 65
5 67
5 68
5 69
5 70
5 71
5 72
5 73
5 74
5 83
5 84
5 85
5 87
5 89
6 9
6 11
6 12
6 13
6 15
6 16
6 17
6 18
6 21
6 22
6 23
6 25
6 27
6 28
6 29
6 30
6 31
6 32
6 35
6 39
6 43
6 47
6 49
6 50
6 52
6 54
6 55
6 57
6 58
6 62
6 63
6 65
6 66
6 70
6 74
6 76
6 77
6 78
6 79
6 80
6 81
6 83
6 84
6 85
6 88
6 89
7 8
7 13
7 14
7 15
7 17
7 18
7 20
7 22
7 23
7 29
7 31
7 34
7 37
7 38
7 39
7 40
7 41
7 49
7 52
7 53
7 54
7 55
7 57
7 58
7 61
7 62
7 64
7 65
7 66
7 67
7 68
7 77
7 78
7 79
7 81
7 85
7 86
7 87
8 9
8 11
8 12
8 13
8 14
8 15
8 18
8 19
8 21
8 23
8 26
8 28
8 33
8 35
8 37
8 38
8 40
8 41
8 42
8 43
8 45
8 51
8 54
8 56
8 58
8 60
8 61
8 66
8 67
8 68
8 70
8 71
8 72
8 73
8 75
8 76
8 77
8 81
8 82
8 84
8 86
9 10
9 12
9 13
9 15
9 18
9 20
9 21
9 22
9 25
9 26
9 28
9 29
9 31
9 33
9 34
9 36
9 37
9 38
9 39
9 40
9 41
9 42
9 45
9 48
9 55
9 62
9 63
9 65
9 66
9 68
9 69
9 71
9 72
9 73
9 75
9 76
9 77
9 78
9 79
9 80
9 81
9 84
9 85
9 86
9 87
9 88
10 12
10 16
10 19
10 20
10 24
10 25
10 27
10 31
10 32
10 34
10 36
10 37
10 38
10 40
10 42
10 43
10 49
10 50
10 51
10 52
10 53
10 56
10 57
10 58
10 61
10 63
10 65
10 68
10 69
10 71
10 73
10 75
10 76
10 77
10 78
10 79
10 81
10 82
10 83
10 84
10 86
10 87
11 12
11 13
11 16
11 18
11 19
11 20
11 23
11 24
11 30
11 32
11 33
11 34
11 36
11 37
11 39
11 40
11 41
11 45
11 46
11 47
11 48
11 51
11 56
11 57
11 58
11 59
11 60
11 61
11 63
11 64
11 66
11 67
11 70
11 72
11 74
11 76
11 79
11 82
11 87
11 88
11 89
12 13
12 15
12 16
12 18
12 19
12 21
12 22
12 23
12 24
12 27
12 29
12 30
12 32
12 34
12 36
12 41
12 42
12 46
12 49
12 50
12 51
12 52
12 53
12 55
12 56
12 60
12 61
12 63
12 66
12 67
12 69
12 71
12 73
12 80
12 81
12 82
12 86
12 87
12 89
13 14
13 15
13 16
13 20
13 21
13 22
13 23
13 25
13 29
13 31
13 32
13 33
13 36
13 39
13 40
13 42
13 43
13 45
13 47
13 49
13 52
13 54
13 56
13 57
13 59
13 66
13 68
13 69
13 74
13 75
13 79
13 80
13 81
13 84
13 85
13 87
13 89
14 17
14 22
14 30
14 32
14 33
14 35
14 38
14 39
14 40
14 41
14 44
14 46
14 50
14 51
14 53
14 54
14 55
14 58
14 59
14 60
14 62
14 66
14 67
14 68
14 69
14 70
14 71
14 73
14 77
14 84
14 85
15 16
15 17
15 18
15 21
15 22
15 23
15 25
15 26
15 27
15 29
15 32
15 41
15 42
15 43
15 46
15 49
15 53
15 56
15 58
15 60
15 63
15 66
15 71
15 73
15 74
15 76
15 82
15 83
15 84
15 87
15 88
15 89
16 17
16 18
16 19
16 20
16 21
16 23
16 25
16 26
16 28
16 30
16 31
16 32
16 33
16 34
16 35
16 36
16 37
16 38
16 39
16 41
16 42
16 43
16 44
16 46
16 47
16 49
16 52
16 53
16 54
16 55
16 56
16 57
16 60
16 62
16 63
16 67
16 68
16 70
16 75
16 76
16 80
16 81
16 82
16 83
16 84
16 85
16 86
16 88
17 20
17 22
17 23
17 24
17 25
17 26
17 28
17 30
17 31
17 33
17 34
17 35
17 36
17 38
17 40
17 41
17 43
17 45
17 46
17 47
17 49
17 58
17 60
17 61
17 63
17 64
17 65
17 66
17 68
17 69
17 71
17 72
17 73
17 74
17 75
17 77
17 78
17 79
17 82
17 89
18 20
18 21
18 25
18 26
18 27
18 28
18 29
18 31
18 32
18 33
18 36
18 37
18 39
18 40
18 41
18 42
18 43
18 44
18 50
18 51
18 52
18 53
18 54
18 55
18 56
18 58
18 60
18 61
18 63
18 64
18 67
18 68
18 70
18 73
18 76
18 77
18 78
18 79
18 81
18 82
18 83
18 86
18 87
18 88
19 20
19 21
19 23
19 24
19 26
19 27
19 31
19 34
19 36
19 39
19 42
19 44
19 48
19 49
19 50
19 51
19 53
19 54
19 56
19 57
19 60
19 61
19 62
19 63
19 64
19 65
19 74
19 75
19 77
19 81
19 82
19 84
19 86
19 87
19 88
20 21
20 22
20 24
20 25
20 26
20 28
20 31
20 33
20 34
20 35
20 37
20 39
20 43
20 44
20 45
20 46
20 47
20 48
20 49
20 51
20 52
20 54
20 56
20 64
20 65
20 69
20 70
20 74
20 75
20 76
20 77
20 82
20 84
20 85
20 86
20 88
20 89
21 23
21 28
21 29
21 31
21 32
21 34
21 35
21 37
21 38
21 39
21 40
21 41
21 43
21 44
21 46
21 47
21 50
21 51
21 52
21 57
21 58
21 62
21 63
21 64
21 66
21 68
21 71
21 80
21 83
21 84
21 85
21 88
22 23
22 24
22 25
22 27
22 28
22 30
22 31
22 32
22 35
22 40
22 42
22 46
22 47
22 50
22 53
22 54
22 57
22 58
22 59
22 62
22 63
22 67
22 68
22 69
22 72
22 73
22 74
22 76
22 81
22 82
22 84
22 89
23 24
23 26
23 27
23 28
23 30
23 31
23 34
23 35
23 37
23 38
23 39
23 40
23 41
23 42
23 44
23 47
23 48
23 49
23 50
23 51
23 52
23 53
23 54
23 55
23 56
23 58
23 59
23 61
23 62
23 69
23 70
23 71
23 74
23 76
23 79
23 80
23 81
23 82
23 83
23 89
24 25
24 26
24 27
24 28
24 29
24 31
24 32
24 34
24 36
24 39
24 40
24 42
24 43
24 44
24 49
24 50
24 51
24 52
24 53
24 55
24 56
24 57
24 58
24 59
24 63
24 67
24 70
24 71
24 74
24 77
24 78
24 79
24 82
24 83
24 84
24 86
24 87
24 88
24 89
25 28
25 30
25 31
25 32
25 34
25 35
25 38
25 43
25 47
25 49
25 52
25 53
25 54
25 55
25 57
25 58
25 59
25 60
25 61
25 62
25 64
25 67
25 68
25 72
25 73
25 74
25 75
25 76
25 77
25 79
25 81
25 83
25 86
26 27
26 28
26 29
26 30
26 32
26 33
26 34
26 36
26 37
26 38
26 40
26 41
26 43
26 44
26 46
26 47
26 48
26 53
26 54
26 55
26 56
26 57
26 60
26 63
26 67
26 68
26 69
26 72
26 73
26 74
26 76
26 78
26 81
26 85
26 86
26 87
27 28
27 31
27 33
27 34
27 35
27 37
27 39
27 43
27 44
27 47
27 49
27 52
27 53
27 54
27 55
27 56
27 58
27 59
27 60
27 61
27 63
27 65
27 67
27 68
27 69
27 70
27 74
27 76
27 77
27 80
27 82
27 83
27 84
27 85
27 86
27 87
27 88
27 89
28 29
28 34
28 37
28 38
28 41
28 42
28 43
28 44
28 45
28 46
28 47
28 48
28 50
28 51
28 54
28 55
28 56
28 57
28 60
28 61
28 66
28 67
28 69
28 74
28 79
28 82
28 83
28 86
29 30
29 34
29 39
29 40
29 41
29 43
29 44
29 45
29 48
29 49
29 52
29 54
29 58
29 60
29 61
29 62
29 63
29 64
29 65
29 66
29 68
29 70
29 74
29 76
29 80
29 81
29 82
29 84
29 85
29 88
29 89
30 32
30 33
30 34
30 37
30 39
30 43
30 44
30 46
30 49
30 51
30 55
30 59
30 61
30 64
30 67
30 69
30 70
30 72
30 73
30 75
30 76
30 77
30 81
30 82
30 83
30 86
30 87
30 89
31 33
31 35
31 37
31 40
31 45
31 46
31 47
31 48
31 49
31 51
31 53
31 55
31 56
31 59
31 61
31 65
31 66
31 69
31 72
31 73
31 74
31 75
31 77
31 78
31 83
31 84
31 89
32 38
32 40
32 42
32 43
32 44
32 46
32 47
32 48
32 49
32 52
32 53
32 54
32 56
32 58
32 59
32 60
32 61
32 62
32 66
32 67
32 69
32 70
32 72
32 73
32 74
32 80
32 82
32 83
32 85
32 86
32 87
32 89
33 34
33 40
33 45
33 46
33 47
33 50
33 51
33 53
33 55
33 57
33 61
33 62
33 63
33 66
33 70
33 71
33 75
33 80
33 83
33 86
33 89
34 37
34 39
34 40
34 42
34 46
34 47
34 52
34 53
34 55
34 58
34 60
34 61
34 63
34 64
34 65
34 68
34 71
34 73
34 74
34 76
34 78
34 80
34 81
34 89
35 37
35 38
35 39
35 43
35 44
35 48
35 49
35 51
35 53
35 56
35 57
35 58
35 59
35 62
35 63
35 65
35 69
35 71
35 73
35 74
35 76
35 77
35 80
35 81
35 84
35 85
35 87
35 88
35 89
36 37
36 39
36 40
36 41
36 43
36 48
36 52
36 53
36 58
36 61
36 63
36 66
36 68
36 70
36 74
36 76
36 77
36 78
36 80
36 82
36 83
36 85
36 86
36 88
36 89
37 39
37 41
37 43
37 48
37 49
37 51
37 54
37 56
37 57
37 59
37 62
37 63
37 64
37 66
37 67
37 69
37 71
37 72
37 73
37 74
37 77
37 79
37 81
37 84
37 89
38 39
38 40
38 41
38 43
38 44
38 46
38 48
38 51
38 52
38 55
38 56
38 58
38 60
38 64
38 65
38 69
38 72
38 73
38 74
38 75
38 76
38 81
38 82
38 84
38 86
39 40
39 42
39 43
39 45
39 46
39 48
39 49
39 51
39 52
39 54
39 56
39 58
39 60
39 61
39 62
39 64
39 66
39 67
39 71
39 74
39 75
39 76
39 78
39 79
39 81
39 85
39 87
39 88
39 89
40 42
40 44
40 45
40 47
40 48
40 50
40 51
40 53
40 54
40 55
40 58
40 59
40 62
40 64
40 65
40 67
40 68
40 72
40 73
40 74
40 75
40 77
40 80
40 81
40 82
40 84
40 86
40 87
40 88
41 43
41 44
41 45
41 46
41 47
41 48
41 50
41 52
41 55
41 57
41 59
41 60
41 62
41 63
41 64
41 66
41 67
41 69
41 72
41 73
41 77
41 79
41 81
41 85
41 87
42 46
42 48
42 52
42 53
42 54
42 55
42 56
42 58
42 61
42 64
42 66
42 67
42 69
42 71
42 74
42 75
42 82
42 83
42 87
43 45
43 46
43 47
43 48
43 55
43 57
43 58
43 64
43 66
43 67
43 68
43 69
43 71
43 72
43 73
43 74
43 75
43 77
43 79
43 81
43 84
44 48
44 54
44 55
44 56
44 57
44 58
44 59
44 60
44 62
44 63
44 65
44 67
44 68
44 69
44 71
44 72
44 73
44 74
44 76
44 78
44 79
44 82
44 88
45 46
45 47
45 49
45 51
45 53
45 55
45 57
45 59
45 60
45 61
45 63
45 66
45 68
45 69
45 72
45 75
45 76
45 81
45 82
45 83
45 84
45 87
46 47
46 50
46 55
46 57
46 58
46 60
46 62
46 63
46 65
46 67
46 68
46 69
46 71
46 73
46 74
46 75
46 77
46 78
46 79
46 81
46 83
46 84
46 86
46 87
46 89
47 48
47 50
47 52
47 54
47 58
47 59
47 60
47 66
47 67
47 69
47 70
47 71
47 72
47 73
47 74
47 76
47 77
47 78
47 79
47 81
47 83
47 84
47 86
47 87
47 89
48 53
48 56
48 58
48 59
48 60
48 62
48 63
48 65
48 66
48 67
48 69
48 71
48 73
48 78
48 79
48 80
48 81
48 83
48 85
48 88
48 89
49 50
49 52
49 53
49 54
49 58
49 59
49 61
49 62
49 63
49 68
49 70
49 71
49 72
49 73
49 78
49 81
49 82
49 83
49 85
49 86
49 89
50 51
50 53
50 54
50 55
50 56
50 60
50 61
50 62
50 63
50 65
50 66
50 67
50 69
50 70
50 71
50 72
50 73
50 75
50 76
50 77
50 79
50 83
50 84
50 85
50 87
51 53
51 54
51 55
51 57
51 64
51 68
51 71
51 73
51 75
51 76
51 77
51 80
51 81
51 82
51 85
51 86
51 88
52 54
52 55
52 56
52 58
52 59
52 60
52 64
52 67
52 68
52 70
52 71
52 72
52 73
52 74
52 75
52 77
52 78
52 82
52 85
52 86
53 54
53 55
53 56
53 57
53 58
53 61
53 64
53 67
53 69
53 70
53 71
53 72
53 73
53 74
53 75
53 76
53 77
53 78
53 82
53 86
53 87
54 55
54 57
54 58
54 59
54 60
54 61
54 64
54 66
54 69
54 75
54 79
54 82
54 83
54 84
54 85
54 89
55 56
55 57
55 58
55 60
55 63
55 67
55 68
55 69
55 72
55 73
55 77
55 82
55 84
55 86
55 87
55 88
55 89
56 57
56 60
56 63
56 64
56 70
56 74
56 75
56 76
56 79
56 80
56 83
56 85
56 86
56 87
56 89
57 60
57 62
57 64
57 65
57 66
57 68
57 69
57 71
57 74
57 75
57 77
57 78
57 79
57 80
57 82
57 84
57 85
57 86
57 88
58 62
58 66
58 67
58 68
58 70
58 71
58 72
58 73
58 76
58 81
58 82
58 84
58 85
58 86
58 87
58 88
58 89
59 62
59 64
59 66
59 68
59 70
59 71
59 72
59 73
59 74
59 76
59 78
59 79
59 83
59 84
59 85
60 61
60 63
60 64
60 66
60 67
60 71
60 80
60 85
60 86
60 88
61 63
61 65
61 67
61 69
61 72
61 73
61 74
61 76
61 77
61 78
61 80
61 81
61 82
61 84
61 85
61 88
62 65
62 70
62 71
62 72
62 74
62 75
62 76
62 77
62 81
62 82
62 83
62 84
62 85
62 86
62 88
62 89
63 65
63 66
63 67
63 68
63 70
63 73
63 74
63 75
63 78
63 79
63 80
63 81
63 84
63 86
63 87
63 89
64 65
64 70
64 72
64 73
64 74
64 75
64 79
64 80
64 82
64 84
64 86
64 88
65 69
65 70
65 71
65 72
65 73
65 74
65 78
65 79
65 80
65 81
65 83
65 88
66 68
66 69
66 70
66 72
66 73
66 75
66 76
66 78
66 79
66 80
66 88
67 68
67 69
67 71
67 73
67 74
67 75
67 78
67 80
67 81
67 86
67 89
68 72
68 76
68 80
68 87
68 88
69 70
69 73
69 74
69 83
69 85
69 87
69 88
69 89
70 72
70 74
70 75
70 76
70 79
70 80
70 83
70 86
71 72
71 73
71 76
71 80
71 81
71 84
71 85
71 88
72 73
72 74
72 81
72 82
72 83
72 85
72 86
72 87
72 88
73 74
73 76
73 78
73 80
73 81
73 83
73 87
73 88
73 89
74 75
74 77
74 78
74 80
74 81
74 82
74 83
74 84
74 85
74 86
74 89
75 78
75 79
75 82
75 84
75 85
75 87
75 88
75 89
76 77
76 79
76 80
76 82
76 84
76 85
76 86
76 89
77 79
77 80
77 81
77 83
77 88
77 89
78 79
78 82
78 86
79 81
79 82
79 83
80 81
80 82
80 84
80 85
80 87
81 86
82 84
82 85
82 87
82 89
83 84
83 86
84 85
84 86
84 88
85 87
85 89
86 88
86 89
87 89
61 82 12 34 26 32 49 29 57 11 2 43 47 27 23 33 18 9
6 24 51 7 45 78 70 75 22 16 89 40 62 36 64 48 4 79
74 39 68 8 80 76 5 35 56 63 0 17 72 52 84 67 31 83
65 55 87 14 50 53 28 60 44 46 19 59 71 15 38 25 10 42
69 73 58 85 41 37 81 30 21 13 1 88 3 66 86 77 20 54
